WARNING: for repeatability, setting FPU to use double precision
============================[ Problem Statistics ]=============================
|                                                                             |
|  Number of variables:            50                                         |
|  Number of clauses:             218                                         |
|  Parse time:                   0.00 s                                       |
|                                                                             |
============================[ Search Statistics ]==============================
| Conflicts |          ORIGINAL         |          LEARNT          | Progress |
|           |    Vars  Clauses Literals |    Limit  Clauses Lit/Cl |          |
===============================================================================
===============================================================================
restarts              : 1
conflicts             : 22             (15954 /sec)
decisions             : 33             (0.00 % random) (23930 /sec)
propagations          : 357            (258883 /sec)
conflict literals     : 87             (14.71 % deleted)
Memory used           : 20.00 MB
CPU time              : 0.001379 s

SATISFIABLE
